25° run output:
{
    "Function": "euclidA300.tsp",
    "Problem dimension": [
        37,
        196,
        128,
        25,
        182,
        115,
        11,
        272,
        257,
        243,
        68,
        44,
        161,
        80,
        67,
        295,
        105,
        194,
        281,
        278,
        171,
        184,
        160,
        142,
        252,
        86,
        213,
        180,
        275,
        211,
        270,
        137,
        283,
        76,
        260,
        71,
        167,
        228,
        258,
        240,
        7,
        48,
        200,
        276,
        227,
        20,
        96,
        126,
        259,
        65,
        35,
        59,
        291,
        19,
        269,
        231,
        57,
        220,
        277,
        249,
        279,
        5,
        235,
        214,
        250,
        163,
        153,
        90,
        36,
        176,
        148,
        290,
        168,
        188,
        136,
        193,
        45,
        23,
        242,
        79,
        204,
        122,
        92,
        190,
        217,
        244,
        29,
        298,
        198,
        203,
        158,
        254,
        127,
        230,
        185,
        123,
        253,
        1,
        49,
        216,
        27,
        219,
        39,
        263,
        62,
        233,
        141,
        157,
        6,
        13,
        251,
        89,
        256,
        293,
        14,
        100,
        119,
        133,
        120,
        159,
        138,
        52,
        149,
        156,
        28,
        72,
        175,
        164,
        30,
        98,
        144,
        173,
        212,
        186,
        125,
        218,
        143,
        236,
        21,
        73,
        15,
        152,
        43,
        0,
        268,
        109,
        85,
        245,
        135,
        166,
        132,
        238,
        292,
        47,
        24,
        274,
        69,
        83,
        169,
        117,
        77,
        241,
        261,
        108,
        2,
        82,
        234,
        78,
        285,
        74,
        172,
        297,
        32,
        101,
        58,
        31,
        145,
        54,
        64,
        95,
        146,
        224,
        40,
        116,
        154,
        9,
        51,
        106,
        187,
        286,
        264,
        239,
        299,
        294,
        99,
        41,
        26,
        265,
        206,
        46,
        124,
        150,
        84,
        134,
        81,
        189,
        75,
        232,
        103,
        56,
        170,
        118,
        55,
        60,
        226,
        165,
        266,
        50,
        66,
        222,
        181,
        17,
        155,
        205,
        215,
        201,
        104,
        280,
        209,
        223,
        183,
        16,
        42,
        114,
        296,
        289,
        262,
        282,
        139,
        287,
        61,
        111,
        110,
        202,
        91,
        284,
        12,
        140,
        195,
        174,
        248,
        229,
        38,
        113,
        162,
        93,
        246,
        22,
        271,
        102,
        10,
        8,
        130,
        97,
        151,
        87,
        63,
        131,
        112,
        288,
        18,
        4,
        107,
        192,
        88,
        178,
        34,
        199,
        273,
        225,
        208,
        237,
        33,
        255,
        191,
        247,
        147,
        177,
        121,
        129,
        94,
        197,
        210,
        70,
        267,
        221,
        179,
        3,
        53,
        207
    ],
    "Global Optimum": 0,
    "Algorithm": "Genetic algorithm",
    "Parameters": {
        "population": 30,
        "offspring": 30,
        "mutation probability": 0.0033333333333333335,
        "crossover probability": 0.9
    },
    "Fitness": 269789,
    "Solution": [
        37,
        196,
        128,
        25,
        182,
        115,
        11,
        272,
        257,
        243,
        68,
        44,
        161,
        80,
        67,
        295,
        105,
        194,
        281,
        278,
        171,
        184,
        160,
        142,
        252,
        86,
        213,
        180,
        275,
        211,
        270,
        137,
        283,
        76,
        260,
        71,
        167,
        228,
        258,
        240,
        7,
        48,
        200,
        276,
        227,
        20,
        96,
        126,
        259,
        65,
        35,
        59,
        291,
        19,
        269,
        231,
        57,
        220,
        277,
        249,
        279,
        5,
        235,
        214,
        250,
        163,
        153,
        90,
        36,
        176,
        148,
        290,
        168,
        188,
        136,
        193,
        45,
        23,
        242,
        79,
        204,
        122,
        92,
        190,
        217,
        244,
        29,
        298,
        198,
        203,
        158,
        254,
        127,
        230,
        185,
        123,
        253,
        1,
        49,
        216,
        27,
        219,
        39,
        263,
        62,
        233,
        141,
        157,
        6,
        13,
        251,
        89,
        256,
        293,
        14,
        100,
        119,
        133,
        120,
        159,
        138,
        52,
        149,
        156,
        28,
        72,
        175,
        164,
        30,
        98,
        144,
        173,
        212,
        186,
        125,
        218,
        143,
        236,
        21,
        73,
        15,
        152,
        43,
        0,
        268,
        109,
        85,
        245,
        135,
        166,
        132,
        238,
        292,
        47,
        24,
        274,
        69,
        83,
        169,
        117,
        77,
        241,
        261,
        108,
        2,
        82,
        234,
        78,
        285,
        74,
        172,
        297,
        32,
        101,
        58,
        31,
        145,
        54,
        64,
        95,
        146,
        224,
        40,
        116,
        154,
        9,
        51,
        106,
        187,
        286,
        264,
        239,
        299,
        294,
        99,
        41,
        26,
        265,
        206,
        46,
        124,
        150,
        84,
        134,
        81,
        189,
        75,
        232,
        103,
        56,
        170,
        118,
        55,
        60,
        226,
        165,
        266,
        50,
        66,
        222,
        181,
        17,
        155,
        205,
        215,
        201,
        104,
        280,
        209,
        223,
        183,
        16,
        42,
        114,
        296,
        289,
        262,
        282,
        139,
        287,
        61,
        111,
        110,
        202,
        91,
        284,
        12,
        140,
        195,
        174,
        248,
        229,
        38,
        113,
        162,
        93,
        246,
        22,
        271,
        102,
        10,
        8,
        130,
        97,
        151,
        87,
        63,
        131,
        112,
        288,
        18,
        4,
        107,
        192,
        88,
        178,
        34,
        199,
        273,
        225,
        208,
        237,
        33,
        255,
        191,
        247,
        147,
        177,
        121,
        129,
        94,
        197,
        210,
        70,
        267,
        221,
        179,
        3,
        53,
        207
    ],
    "Nb of functions evaluations": 400020,
    "Computational time in seconds": 690.6788022518158,
    "Stopping criterion in evaluations": 400000
}